** SYNTHETIC_TEST_DATA — solver smoke only; not V7 project evidence.
*HEADING
Synthetic unit cube solver smoke
*NODE
1,0.,0.,0.
2,1.,0.,0.
3,1.,1.,0.
4,0.,1.,0.
5,0.,0.,1.
6,1.,0.,1.
7,1.,1.,1.
8,0.,1.,1.
*ELEMENT,TYPE=C3D8
1,1,2,3,4,5,6,7,8
*NSET,NSET=FIXED
1,4,5,8
*NSET,NSET=LOAD
2,3,6,7
*ELSET,ELSET=SOLID
1
*MATERIAL,NAME=STEEL_SYNTHETIC
*ELASTIC
210000.,0.3
*SOLID SECTION,ELSET=SOLID,MATERIAL=STEEL_SYNTHETIC
*BOUNDARY
FIXED,1,3
*STEP
*STATIC
1.,1.,1e-05,1.
*CLOAD
LOAD,3,1000.
*NODE FILE
U
*EL FILE
S
*END STEP
